# NUFEB simulation

atom_style	bio
atom_modify	map array sort 100 5.0e-7
boundary	pp pp ff
newton		off
processors  * * 1

units si

comm_modify	vel yes
read_data_bio atom.in

variable x equal 100
variable y equal 20
variable z equal 30

lattice sc 1e-6 origin 0.5 0.5 0.5

region reg block 0 $x 0 $y 0 $z
region reg2 block 0 $x 0 $y 36 39
#region reg3 block 1 2 1 100 36 38

variable  xx internal 0.0
variable  zz internal 0.0
variable  v equal "(0.08*v_z*zlat * cos(v_xx/xlat * 2.5*PI*4.0/v_x) + 0.85*v_z*zlat - v_zz) > 0.0"

variable xx2 internal 0.0
variable zz2 internal 0.0
variable v2 equal "(0.2*v_z*zlat * cos(v_xx2/xlat * 2.5*PI*4.0/v_x) + 0.95*v_z*zlat - v_zz2) > 0.0"

create_atoms 4 region reg var v set x xx set z zz
#create_atoms 4 region reg

group STEM type 1
group TA type 2
group DIFF type 3
group BM type 4

neighbor	5e-7 bin

set type 1 density 150
set type 1 diameter 1.0e-6
set type 1 mass 7.853981e-17

set type 2 density 150
set type 2 diameter 1.0e-6
set type 2 mass 7.853981e-17

set type 3 density 150
set type 3 diameter 1.0e-6
set type 3 mass 7.853981e-17

set type 4 density 150
set type 4 diameter 1.0e-6
set type 4 mass 7.853981e-17


##############Define DEM Variables&Commands##############
# ***bowen** new format, cutoff, density, diameter, #of sc, seed
fix sc1 STEM psoriasis/create_stem 1e-8 150 1.0e-6 50 64564 

pair_style  gran/hooke/history 1.e-4 NULL 1.e-5 NULL 0.0 1
pair_coeff  * *

timestep 1e-10

fix 1 all nve/limit 1e-8
fix fv all viscous 1e-5

fix sf BM setforce 0.0 0.0 0.0

##############Define IBm Variables##############


#variables used in fix division
variable divDia equal 1.36e-6
variable EPSdens equal 30
variable divisionCounter equal 4
variable prob1 equal 0.1
variable prob2 equal 0.8
variable prob3 equal 0.1

#variables used in fix kinetics
variable diffT equal 1e-4
variable layer equal -1

##############Define IBm Commands##############

fix k1 all kinetics 100 25 10 25 v_diffT v_layer niter 1
#fix d1 STEM psoriasis/divide_stem 5400 v_prob1 v_prob2 v_prob3 64564
#fix d2 TA psoriasis/divide_ta 2160 v_prob1 v_prob2 v_prob3 64564


##############Define IBm Computes##############

compute myNtypes all ntypes
compute myMass all biomass

##############Simulation Output##############

# Use atom_# instead of atom%_#
dump		du1 all custom/vtk 1 atom_*.vtu id type diameter x y z
thermo_style    custom step cpu atoms c_myNtypes[*]
thermo		2160
thermo_modify	lost ignore


run 1
